Problem:    
Rows:       192
Columns:    65 (48 integer, 48 binary)
Non-zeros:  752
Status:     INTEGER OPTIMAL
Objective:  value = 16.931678 (MINimum)

   No.   Row name        Activity     Lower bound   Upper bound
------ ------------    ------------- ------------- -------------
     1 r.5                   1016.93             0               
     2 r.6                  -995.194      -998.325               
     3 r.7                   16.9317             0               
     4 r.8                   4.80637      -990.756               
     5 r.9                   1016.93             0               
     6 r.10                 -996.868       -998.75               
     7 r.11                  16.9317             0               
     8 r.12                  4.80637      -994.102               
     9 r.13                  1016.93             0               
    10 r.14                 -998.119      -998.965               
    11 r.15                  16.9317             0               
    12 r.16                  4.80637      -994.301               
    13 r.17                  1016.93             0               
    14 r.18                 -999.677      -999.846               
    15 r.19                  16.9317             0               
    16 r.20                  1.88138      -998.968               
    17 r.21                  1016.93             0               
    18 r.22                 -999.154      -999.477               
    19 r.23                  16.9317             0               
    20 r.24                  3.13178      -995.459               
    21 r.25                  1016.93             0               
    22 r.26                 -999.831      -999.831               
    23 r.27                  16.9317             0               
    24 r.28                   0.1692      -997.463               
    25 r.29                  1016.93             0               
    26 r.30                 -983.068      -998.784               
    27 r.31                  16.9317             0               
    28 r.32                  16.9317      -996.931               
    29 r.33                  1016.93             0               
    30 r.34                 -984.285      -989.091               
    31 r.35                  16.9317             0               
    32 r.36                  16.9317      -975.417               
    33 r.37                        1             1             = 
    34 r.38                        1             1             = 
    35 r.39                        1             1             = 
    36 r.40                        1             1             = 
    37 r.41                        1             1             = 
    38 r.42                        1             1             = 
    39 r.43                        1             1             = 
    40 r.44                        1             1             = 
    41 r.45                        2             2               
    42 r.46                       -2         -1001               
    43 r.47                 -1.67459       -998.75               
    44 r.48                     1000             2               
    45 r.49                    -1000         -1001               
    46 r.50                     2000      -994.102               
    47 r.51                        2             2               
    48 r.52                       -2         -1001               
    49 r.53                 -2.92499      -998.965               
    50 r.54                     1000             2               
    51 r.55                    -1000         -1001               
    52 r.56                     2000      -994.301               
    53 r.57                 -995.516      -998.325               
    54 r.58                  4.48357      -990.756               
    55 r.59                 -997.075      -998.325               
    56 r.60                  2.92499      -990.756               
    57 r.61                  -996.04      -998.325               
    58 r.62                  3.96048      -990.756               
    59 r.63                 -998.325      -998.325               
    60 r.64                  1.67459      -990.756               
    61 r.65                 -987.875      -998.784               
    62 r.66                  12.1253      -996.931               
    63 r.67                 -987.875      -998.784               
    64 r.68                  12.1253      -996.931               
    65 r.69                 -989.091      -989.091               
    66 r.70                  12.1253      -975.417               
    67 r.71                 -989.091      -989.091               
    68 r.72                  12.1253      -975.417               
    69 r.73                        2             2               
    70 r.74                       -2         -1001               
    71 r.75                  1.67459       1.67459               
    72 r.76                     1000             2               
    73 r.77                    -1000         -1001               
    74 r.78                     2000       9.24368               
    75 r.79                        2             2               
    76 r.80                       -2         -1001               
    77 r.81                  -1.2504      -998.965               
    78 r.82                     1000             2               
    79 r.83                    -1000         -1001               
    80 r.84                     2000      -994.301               
    81 r.85                 -997.191       -998.75               
    82 r.86                  4.48357      -994.102               
    83 r.87                  -998.75       -998.75               
    84 r.88                  2.92499      -994.102               
    85 r.89                        2             2               
    86 r.90                       -2         -1001               
    87 r.91                 -2.28589      -999.477               
    88 r.92                     1000             2               
    89 r.93                    -1000         -1001               
    90 r.94                  1998.33      -995.459               
    91 r.95                 -997.037       -998.75               
    92 r.96                  4.63717      -994.102               
    93 r.97                 -997.037       -998.75               
    94 r.98                  4.63717      -994.102               
    95 r.99                   -986.2      -998.784               
    96 r.100                 13.7999      -996.931               
    97 r.101                -987.875      -998.784               
    98 r.102                 12.1253      -996.931               
    99 r.103                -987.417      -989.091               
   100 r.104                 13.7999      -975.417               
   101 r.105                -989.091      -989.091               
   102 r.106                 12.1253      -975.417               
   103 r.107                       2             2               
   104 r.108                      -2         -1001               
   105 r.109                 2.92499       1.67459               
   106 r.110                    1000             2               
   107 r.111                   -1000         -1001               
   108 r.112                    2000       9.24368               
   109 r.113                       2             2               
   110 r.114                      -2         -1001               
   111 r.115                  1.2504        1.2504               
   112 r.116                    1000             2               
   113 r.117                   -1000         -1001               
   114 r.118                    2000       5.89834               
   115 r.119                       2             2               
   116 r.120                      -2         -1001               
   117 r.121                -1.55858      -999.846               
   118 r.122                    1000             2               
   119 r.123                   -1000         -1001               
   120 r.124                 1997.08      -998.968               
   121 r.125                       2             2               
   122 r.126                      -2         -1001               
   123 r.127                -1.03549      -999.477               
   124 r.128                    1000             2               
   125 r.129                   -1000         -1001               
   126 r.130                 1998.33      -995.459               
   127 r.131                -998.288      -998.965               
   128 r.132                 4.63717      -994.301               
   129 r.133                -998.288      -998.965               
   130 r.134                 4.63717      -994.301               
   131 r.135                 -984.95      -998.784               
   132 r.136                 15.0503      -996.931               
   133 r.137                -987.875      -998.784               
   134 r.138                 12.1253      -996.931               
   135 r.139                -986.166      -989.091               
   136 r.140                 15.0503      -975.417               
   137 r.141                -989.091      -989.091               
   138 r.142                 12.1253      -975.417               
   139 r.143                       2             2               
   140 r.144                      -2         -1001               
   141 r.145                 1.55858       1.03549               
   142 r.146                    1000             2               
   143 r.147                   -1000         -1001               
   144 r.148                 2002.92       5.69938               
   145 r.149                       2             2               
   146 r.150                      -2         -1001               
   147 r.151                -999.477      -999.477               
   148 r.152                    1000             2               
   149 r.153                   -1000         -1001               
   150 r.154                 2001.25      -995.459               
   151 r.155                -999.846      -999.846               
   152 r.156                 1.71218      -998.968               
   153 r.157                -999.846      -999.846               
   154 r.158                 1.71218      -998.968               
   155 r.159                       2             2               
   156 r.160                      -2         -1001               
   157 r.161                 2.28589        1.2504               
   158 r.162                    1000             2               
   159 r.163                   -1000         -1001               
   160 r.164                 2001.67       5.89834               
   161 r.165                       2             2               
   162 r.166                      -2         -1001               
   163 r.167                 1.03549       1.03549               
   164 r.168                    1000             2               
   165 r.169                   -1000         -1001               
   166 r.170                 2001.67       5.69938               
   167 r.171                       2             2               
   168 r.172                      -2         -1001               
   169 r.173                 999.477        0.1536               
   170 r.174                    1000             2               
   171 r.175                   -1000         -1001               
   172 r.176                 1998.75       1.03175               
   173 r.177                -999.323      -999.477               
   174 r.178                 2.96258      -995.459               
   175 r.179                -999.323      -999.477               
   176 r.180                 2.96258      -995.459               
   177 r.181                -983.914      -998.784               
   178 r.182                 16.0858      -996.931               
   179 r.183                  -986.2      -998.784               
   180 r.184                 13.7999      -996.931               
   181 r.185                       2             2               
   182 r.186                      -2         -1001               
   183 r.187                -1.21648      -989.091               
   184 r.188                    1000             2               
   185 r.189                   -1000         -1001               
   186 r.190                    2000      -975.417               
   187 r.191                       2             2               
   188 r.192                      -2         -1001               
   189 r.193                 1.21648       1.21648               
   190 r.194                    1000             2               
   191 r.195                   -1000         -1001               
   192 r.196                    2000       3.06875               

   No. Column name       Activity     Lower bound   Upper bound
------ ------------    ------------- ------------- -------------
     1 tt                    16.9317             0               
     2 s_1_1        *              1             0             1 
     3 t_1_1                 12.1253             0               
     4 s_1_7        *              1             0             1 
     5 s_1_8        *              1             0             1 
     6 s_2_1        *              0             0             1 
     7 t_2_1                 12.1253             0               
     8 s_2_7        *              0             0             1 
     9 s_2_8        *              0             0             1 
    10 s_1_2        *              1             0             1 
    11 t_1_2                 13.7999             0               
    12 s_2_2        *              0             0             1 
    13 t_2_2                 12.1253             0               
    14 s_1_3        *              1             0             1 
    15 t_1_3                 15.0503             0               
    16 s_2_3        *              0             0             1 
    17 t_2_3                 12.1253             0               
    18 s_1_4        *              1             0             1 
    19 t_1_4                 16.6089             0               
    20 s_2_4        *              0             0             1 
    21 t_2_4                 15.0503             0               
    22 s_1_5        *              1             0             1 
    23 t_1_5                 16.0858             0               
    24 s_2_5        *              0             0             1 
    25 t_2_5                 13.7999             0               
    26 s_1_6        *              1             0             1 
    27 t_1_6                 16.7625             0               
    28 s_2_6        *              0             0             1 
    29 t_2_6                 16.7625             0               
    30 t_1_7                       0             0               
    31 t_2_7                       0             0               
    32 t_1_8                 1.21648             0               
    33 t_2_8                       0             0               
    34 r_1_1_2      *              0             0             1 
    35 u_1_1_2      *              0             0             1 
    36 r_2_1_2      *              1             0             1 
    37 u_2_1_2      *              0             0             1 
    38 r_1_1_3      *              0             0             1 
    39 u_1_1_3      *              0             0             1 
    40 r_2_1_3      *              1             0             1 
    41 u_2_1_3      *              0             0             1 
    42 r_1_2_3      *              0             0             1 
    43 u_1_2_3      *              0             0             1 
    44 r_2_2_3      *              1             0             1 
    45 u_2_2_3      *              0             0             1 
    46 r_1_2_5      *              0             0             1 
    47 u_1_2_5      *              0             0             1 
    48 r_2_2_5      *              1             0             1 
    49 u_2_2_5      *              0             0             1 
    50 r_1_3_4      *              0             0             1 
    51 u_1_3_4      *              0             0             1 
    52 r_2_3_4      *              1             0             1 
    53 u_2_3_4      *              0             0             1 
    54 r_1_3_5      *              0             0             1 
    55 u_1_3_5      *              0             0             1 
    56 r_2_3_5      *              1             0             1 
    57 u_2_3_5      *              0             0             1 
    58 r_1_4_5      *              0             0             1 
    59 u_1_4_5      *              1             0             1 
    60 r_2_4_5      *              1             0             1 
    61 u_2_4_5      *              0             0             1 
    62 r_1_7_8      *              0             0             1 
    63 u_1_7_8      *              0             0             1 
    64 r_2_7_8      *              1             0             1 
    65 u_2_7_8      *              0             0             1 

Integer feasibility conditions:

KKT.PE: max.abs.err = 1.14e-13 on row 14
        max.rel.err = 9.32e-17 on row 49
        High quality

KKT.PB: max.abs.err = 1.14e-13 on row 151
        max.rel.err = 3.95e-16 on row 111
        High quality

End of output
